NAME : LIN105A.17677.tour
COMMENT : Cost = 0_17677
COMMENT : Found by LKH [Keld Helsgaun] Sun Sep 17 16:52:42 2017
TYPE : TOUR
DIMENSION : 105
TOUR_SECTION
1
6
7
23
28
30
31
32
45
48
47
43
46
52
53
58
63
62
57
54
51
44
41
42
39
38
60
61
65
66
87
88
94
100
95
90
89
79
77
72
78
83
85
91
92
97
96
101
102
93
98
99
81
70
69
74
75
73
76
80
86
84
82
71
68
67
64
105
59
56
55
50
49
40
104
33
27
24
19
8
9
5
4
13
14
34
35
37
36
26
25
18
17
16
12
20
103
29
22
21
15
11
10
3
2
-1
EOF
